18426 17130 1 2 4 5 7 8 10 11 13 14 16 17 19 20 22 23 24 26 28 29 30 31 32 34 35 36 37 39 42 45 46 49 50 51 52 53 54 55 56 57 58 61 62 63 64 65 66 67 68 74 75 78 81 82 83 84 86 87 88 89 90 94 95 96 97 98 99 